db/data/19007231614498494459294942862026295.z3.out
-------------------
2500.196797629
